nApps = 203
nRes = 9
nActs = 432
nNetworks = 6

assignmentToResources = [1,3,2,3,1,2,3,3,3,2,2,2,3,1,3,3,3,1,3,2,2,3,2,3,1,1,2,2,2,2,3,1,1,2,2,1,2,1,2,2,2,2,2,3,2,2,1,3,3,2,3,2,3,3,2,1,2,2,1,2,2,2,3,3,3,2,1,2,3,2,3,2,2,3,3,2,2,2,2,3,2,1,3,2,1,1,3,3,1,3,3,1,1,2,2,3,2,1,3,1,4,4,4,4,6,6,6,6,5,5,6,6,6,6,4,4,5,5,6,6,6,5,5,5,5,5,6,6,4,6,6,6,6,6,6,4,4,4,4,6,6,5,5,5,5,5,6,4,4,4,4,5,5,5,5,5,5,5,6,4,4,5,5,5,5,4,4,5,5,5,5,5,5,5,5,5,6,6,5,5,6,5,6,6,6,6,6,4,4,5,5,5,4,4,4,5,5,5,5,6,6,6,6,5,5,5,6,5,6,5,5,5,6,5,5,5,5,5,5,6,4,5,5,4,6,6,6,6,6,6,6,6,6,4,4,4,6,6,5,7,6,7,6,8,5,7,5,9,6,7,6,7,5,9,4,8,5,9,4,9,6,8,6,7,6,7,5,9,4,8,5,9,6,7,4,8,4,8,6,7,5,9,4,9,4,8,5,9,6,7,5,9,6,8,9,9,8,9,8,8,8,7,9,7,8,8,7,7,8,8,9,9,8,7,8,7,9,9,9,9,7,8,8,7,8,8,7,8,8,9,8,8,8,7,7,7,7,9,9,9,7,9,8,9,9,9,7,7,9,7,9,7,8,8,8,7,7,7,7,9,9,9,7,9,9,7,9,9,7,9,8,7,9,9,8,7,8,7,8,7,7,9,9,9,9,9,8,9,8,7,9,7,7,8,7,8,7,9,7,7,8,9,8,9,9,7,8,7,9,7,7,7,9,7,9,9,7,9,8,8,7,8,7,7,8,7,8,8,8,8,8,7];

processingTimes = [48,128,120,120,128,104,64,128,136,120,128,128,112,96,136,136,72,128,168,56,160,72,112,64,112,136,136,160,136,72,144,64,104,160,128,128,120,120,144,80,56,136,112,160,112,136,112,104,112,160,88,112,136,128,168,120,120,96,168,64,128,104,104,136,56,128,112,120,120,136,120,120,136,112,64,160,56,112,160,128,128,168,120,144,112,176,152,104,72,144,136,128,104,112,104,72,120,104,120,136,4,4,100,4,4,3,3,500,3,4,13,500,5,500,8,8,500,500,3,8,3,3,3,4,7,3,500,3,3,3,4,3,4,4,8,500,4,4,3,3,3,4,3,3,3,500,4,5,500,500,4,3,3,500,4,4,4,4,4,4,500,4,4,13,13,3,100,500,4,8,500,4,23,8,4,500,500,3,500,3,500,3,4,500,500,5,5,4,4,13,5,4,4,4,4,4,500,4,4,4,4,13,3,500,4,5,3,3,500,3,3,3,3,4,3,13,13,3,3,8,4,4,500,4,8,8,13,13,13,4,4,3,500,4,4,500,3,5,4,4,5,5,4,4,4,4,3,3,4,4,3,3,3,3,4,4,3,3,4,4,8,8,3,3,4,4,3,3,3,3,23,23,500,500,500,500,500,500,500,500,500,500,500,500,3,3,3,3,4,4,3,3,3,3,4,4,100,4,4,3,3,500,3,4,13,500,5,500,8,8,500,500,3,8,3,3,3,4,7,3,500,3,3,3,4,3,4,4,8,500,4,4,3,3,3,4,3,3,3,500,4,5,500,500,4,3,3,500,4,4,4,4,4,4,500,4,4,13,13,3,100,500,4,8,500,4,23,8,4,500,500,3,500,3,500,3,4,500,500,5,5,4,4,13,5,4,4,4,4,4,500,4,4,4,4,13,3,500,4,5,3,3,500,3,3,3,3,4,3,13,13,3,3,8,4,4,500,4,8,8,13,13,13,4,4,3,500,4,4,500,3,5];

periods = [1000,20000,20000,20000,20000,20000,100000,20000,10000,20000,100000,10000,20000,100000,20000,50000,20000,10000,20000,10000,100000,100000,5000,1000,10000,10000,100000,50000,20000,100000,10000,20000,10000,20000,20000,1000,20000,10000,20000,20000,10000,10000,10000,10000,20000,20000,100000,20000,10000,10000,10000,20000,20000,20000,10000,100000,100000,50000,100000,10000,20000,10000,20000,10000,20000,20000,20000,5000,10000,20000,10000,10000,20000,100000,100000,100000,100000,100000,20000,20000,100000,20000,10000,10000,20000,10000,20000,100000,10000,1000,10000,20000,10000,100000,20000,10000,2000,20000,20000,20000,1000,1000,1000,1000,20000,20000,20000,20000,20000,20000,20000,20000,20000,20000,20000,20000,20000,20000,100000,100000,10000,20000,100000,100000,100000,10000,20000,20000,100000,20000,50000,50000,50000,20000,20000,10000,10000,10000,10000,20000,20000,10000,10000,100000,100000,5000,1000,10000,10000,10000,10000,100000,100000,100000,20000,20000,20000,20000,10000,20000,10000,20000,20000,20000,20000,1000,1000,20000,20000,20000,20000,20000,20000,20000,10000,10000,10000,10000,20000,20000,20000,10000,10000,20000,20000,20000,20000,100000,100000,100000,100000,50000,100000,100000,100000,10000,20000,20000,20000,20000,20000,10000,10000,20000,20000,5000,10000,20000,10000,10000,10000,20000,100000,100000,100000,100000,100000,100000,100000,20000,20000,10000,10000,20000,20000,20000,20000,20000,20000,20000,20000,100000,10000,10000,10000,10000,10000,20000,20000,20000,20000,20000,20000,20000,20000,20000,20000,20000,20000,20000,20000,20000,20000,20000,20000,20000,20000,20000,20000,20000,20000,20000,100000,100000,100000,100000,100000,100000,100000,100000,20000,20000,10000,10000,10000,10000,10000,10000,10000,10000,10000,10000,10000,10000,10000,10000,10000,10000,10000,10000,10000,10000,10000,10000,1000,1000,1000,1000,20000,20000,20000,20000,20000,20000,20000,20000,20000,20000,20000,20000,20000,20000,100000,100000,10000,20000,100000,100000,100000,10000,20000,20000,100000,20000,50000,50000,50000,20000,20000,10000,10000,10000,10000,20000,20000,10000,10000,100000,100000,5000,1000,10000,10000,10000,10000,100000,100000,100000,20000,20000,20000,20000,10000,20000,10000,20000,20000,20000,20000,1000,1000,20000,20000,20000,20000,20000,20000,20000,10000,10000,10000,10000,20000,20000,20000,10000,10000,20000,20000,20000,20000,100000,100000,100000,100000,50000,100000,100000,100000,10000,20000,20000,20000,20000,20000,10000,10000,20000,20000,5000,10000,20000,10000,10000,10000,20000,100000,100000,100000,100000,100000,100000,100000,20000,20000,10000,10000,20000,20000,20000,20000,20000,20000,20000,20000,100000,10000,10000,10000,10000,10000,20000];

assignmentToClusters = [1,2,3,4,5,6,7,5,8,9,10,11,12,13,5,14,15,16,17,18,19,20,21,22,23,24,25,26,27,13,16,28,29,30,31,32,5,33,15,34,35,16,36,37,5,38,13,5,16,39,40,5,5,41,16,13,42,43,13,44,45,33,46,47,5,5,5,48,49,50,51,44,5,13,13,52,53,54,55,56,57,5,33,58,5,33,59,60,16,61,16,5,16,62,5,44,63,64,5,65,66,67,68,69,70,71,72,73,74,75,76,77,78,79,80,81,82,83,84,85,86,87,88,89,90,91,92,93,94,95,96,97,98,99,100,101,102,103,104,105,106,107,108,109,110,111,112,113,114,115,116,117,118,119,120,121,122,123,124,125,126,127,128,129,130,131,132,133,134,135,136,137,138,139,140,141,142,143,144,145,146,147,148,149,150,151,152,153,154,155,156,157,158,159,160,161,162,163,164,165,166,167,168,169,170,171,172,173,174,175,176,177,178,179,180,181,182,183,184,185,186,187,188,189,190,191,192,193,194,195,196,197,198,199,200,201,202,203,5,5,5,5,5,5,5,5,5,5,5,5,5,5,5,5,5,5,5,5,5,5,5,5,13,13,13,13,13,13,13,13,15,15,16,16,16,16,16,16,16,16,16,16,16,16,33,33,33,33,33,33,44,44,44,44,66,67,68,69,70,71,72,73,74,75,76,77,78,79,80,81,82,83,84,85,86,87,88,89,90,91,92,93,94,95,96,97,98,99,100,101,102,103,104,105,106,107,108,109,110,111,112,113,114,115,116,117,118,119,120,121,122,123,124,125,126,127,128,129,130,131,132,133,134,135,136,137,138,139,140,141,142,143,144,145,146,147,148,149,150,151,152,153,154,155,156,157,158,159,160,161,162,163,164,165,166,167,168,169,170,171,172,173,174,175,176,177,178,179,180,181,182,183,184,185,186,187,188,189,190,191,192,193,194,195,196,197,198,199,200,201,202,203];

precedenceAdjList = [[],[],[],[],[239,241],[],[],[253],[],[],[],[],[],[55],[64],[],[271],[273],[],[],[],[],[],[],[],[],[],[],[],[269],[],[],[],[],[],[],[],[],[],[],[],[275,277],[],[],[94],[],[13,265],[98],[281],[],[],[65,243],[],[],[],[263],[],[],[],[],[],[285],[],[],[257,259],[],[],[],[],[],[],[293],[261],[],[267],[],[],[],[],[],[],[245],[287],[],[],[289],[],[],[279],[],[283],[249,251],[17],[],[255],[291],[],[],[247],[],[],[],[],[],[],[],[],[],[],[],[],[],[],[],[],[],[],[],[],[],[],[],[],[],[],[],[],[],[],[],[],[],[],[],[],[],[],[],[],[],[],[],[],[],[],[],[],[],[],[],[],[],[],[],[],[],[],[],[],[],[],[],[],[],[],[],[],[],[],[],[],[],[],[],[],[],[],[],[],[],[],[],[],[],[],[],[],[],[],[],[],[],[],[],[],[],[],[],[],[],[],[],[],[],[],[],[],[],[],[],[],[],[],[],[],[],[],[],[],[],[],[],[],[],[],[],[],[],[],[],[],[],[],[],[],[],[],[],[51],[238],[98],[240],[52],[242],[51],[244],[36],[246],[7],[248],[47],[250],[94],[252],[66],[254],[44],[256],[84],[258],[64],[260],[73],[262],[74],[264],[29],[266],[58],[268],[38],[270],[30],[272],[17],[274],[88],[276],[48],[278],[54],[280],[92],[282],[37],[284],[61],[286],[82],[288],[59],[290],[95],[292],[100],[101],[102],[103],[104],[105],[106],[107],[108],[109],[110],[111],[112],[113],[114],[115],[116],[117],[118],[119],[120],[121],[122],[123],[124],[125],[126],[127],[128],[129],[130],[131],[132],[133],[134],[135],[136],[137],[138],[139],[140],[141],[142],[143],[144],[145],[146],[147],[148],[149],[150],[151],[152],[153],[154],[155],[156],[157],[158],[159],[160],[161],[162],[163],[164],[165],[166],[167],[168],[169],[170],[171],[172],[173],[174],[175],[176],[177],[178],[179],[180],[181],[182],[183],[184],[185],[186],[187],[188],[189],[190],[191],[192],[193],[194],[195],[196],[197],[198],[199],[200],[201],[202],[203],[204],[205],[206],[207],[208],[209],[210],[211],[212],[213],[214],[215],[216],[217],[218],[219],[220],[221],[222],[223],[224],[225],[226],[227],[228],[229],[230],[231],[232],[233],[234],[235],[236],[237]];